Problem:    frequenze
Rows:       44
Columns:    22 (22 integer, 22 binary)
Non-zeros:  108
Status:     INTEGER OPTIMAL
Objective:  frequenzeAttive = 8 (MAXimum)

   No.   Row name        Activity     Lower bound   Upper bound
------ ------------    ------------- ------------- -------------
     1 Incompatibili[2,1]
                                   1                           1 
     2 Incompatibili[3,1]
                                   1                           1 
     3 Incompatibili[3,2]
                                   0                           1 
     4 Incompatibili[4,2]
                                   1                           1 
     5 Incompatibili[4,3]
                                   1                           1 
     6 Incompatibili[5,3]
                                   0                           1 
     7 Incompatibili[5,4]
                                   1                           1 
     8 Incompatibili[6,4]
                                   1                           1 
     9 Incompatibili[6,5]
                                   0                           1 
    10 Incompatibili[7,5]
                                   1                           1 
    11 Incompatibili[7,6]
                                   1                           1 
    12 Incompatibili[8,6]
                                   0                           1 
    13 Incompatibili[8,7]
                                   1                           1 
    14 Incompatibili[9,7]
                                   1                           1 
    15 Incompatibili[9,8]
                                   0                           1 
    16 Incompatibili[10,8]
                                   1                           1 
    17 Incompatibili[10,9]
                                   1                           1 
    18 Incompatibili[11,10]
                                   1                           1 
    19 Incompatibili[12,11]
                                   1                           1 
    20 Incompatibili[13,11]
                                   0                           1 
    21 Incompatibili[13,12]
                                   1                           1 
    22 Incompatibili[14,12]
                                   1                           1 
    23 Incompatibili[14,13]
                                   0                           1 
    24 Incompatibili[15,13]
                                   1                           1 
    25 Incompatibili[15,14]
                                   1                           1 
    26 Incompatibili[16,14]
                                   0                           1 
    27 Incompatibili[16,15]
                                   1                           1 
    28 Incompatibili[17,15]
                                   1                           1 
    29 Incompatibili[17,16]
                                   0                           1 
    30 Incompatibili[18,16]
                                   0                           1 
    31 Incompatibili[18,17]
                                   0                           1 
    32 Incompatibili[19,16]
                                   1                           1 
    33 Incompatibili[19,17]
                                   1                           1 
    34 Incompatibili[19,18]
                                   1                           1 
    35 Incompatibili[20,16]
                                   0                           1 
    36 Incompatibili[20,17]
                                   0                           1 
    37 Incompatibili[20,18]
                                   0                           1 
    38 Incompatibili[20,19]
                                   1                           1 
    39 Incompatibili[21,18]
                                   0                           1 
    40 Incompatibili[21,19]
                                   1                           1 
    41 Incompatibili[21,20]
                                   0                           1 
    42 Incompatibili[22,20]
                                   1                           1 
    43 Incompatibili[22,21]
                                   1                           1 
    44 frequenzeAttive
                                   8                             

   No. Column name       Activity     Lower bound   Upper bound
------ ------------    ------------- ------------- -------------
     1 x[1]         *              1             0             1 
     2 x[2]         *              0             0             1 
     3 x[3]         *              0             0             1 
     4 x[4]         *              1             0             1 
     5 x[5]         *              0             0             1 
     6 x[6]         *              0             0             1 
     7 x[7]         *              1             0             1 
     8 x[8]         *              0             0             1 
     9 x[9]         *              0             0             1 
    10 x[10]        *              1             0             1 
    11 x[11]        *              0             0             1 
    12 x[12]        *              1             0             1 
    13 x[13]        *              0             0             1 
    14 x[14]        *              0             0             1 
    15 x[15]        *              1             0             1 
    16 x[16]        *              0             0             1 
    17 x[17]        *              0             0             1 
    18 x[18]        *              0             0             1 
    19 x[19]        *              1             0             1 
    20 x[20]        *              0             0             1 
    21 x[21]        *              0             0             1 
    22 x[22]        *              1             0             1 

Integer feasibility conditions:

KKT.PE: max.abs.err = 0.00e+00 on row 0
        max.rel.err = 0.00e+00 on row 0
        High quality

KKT.PB: max.abs.err = 0.00e+00 on row 0
        max.rel.err = 0.00e+00 on row 0
        High quality

End of output
